NAME : n100w100.005.749.tour
COMMENT : Length = 749
COMMENT : Found by LKH [Keld Helsgaun] Tue May  2 05:52:31 2017
TYPE : TOUR
DIMENSION : 101
TOUR_SECTION
1
7
57
69
79
22
91
73
56
87
46
3
82
27
30
78
29
67
31
99
34
71
61
23
48
58
62
10
5
9
90
16
6
65
93
20
32
21
47
86
40
12
50
96
38
17
53
13
45
26
63
81
97
52
2
89
44
11
98
70
59
75
54
42
18
15
24
76
41
68
43
92
72
64
84
25
55
95
83
88
35
85
19
36
94
51
77
100
60
4
14
39
80
66
28
37
8
49
74
101
33
-1
EOF
